MARKOV
1075
 2 2 2 2 2 2 2 2 2 2 2 2 2 2 2 2 2 2 2 2 2 2 2 2 2 2 2 2 2 2 2 2 2 2 2 2 2 2 2 2 2 2 2 2 2 2 2 2 2 2 2 2 2 2 2 2 2 2 2 2 2 2 2 2 2 2 2 2 2 2 2 2 2 2 2 2 2 2 2 2 2 2 2 2 2 2 2 2 2 2 2 2 2 2 2 2 2 2 2 2 2 2 2 2 2 2 2 2 2 2 2 2 2 2 2 2 2 2 2 2 2 2 2 2 2 2 2 2 2 2 2 2 2 2 2 2 2 2 2 2 2 2 2 2 2 2 2 2 2 2 2 2 2 2 2 2 2 2 2 2 2 2 2 2 2 2 2 2 2 2 2 2 2 2 2 2 2 2 2 2 2 2 2 2 2 2 2 2 2 2 2 2 2 2 2 2 2 2 2 2 2 2 2 2 2 2 2 2 2 2 2 2 2 2 2 2 2 2 2 2 2 2 2 2 2 2 2 2 2 2 2 2 2 2 2 2 2 2 2 2 2 2 2 2 2 2 2 2 2 2 2 2 2 2 2 2 2 2 2 2 2 2 2 2 2 2 2 2 2 2 2 2 2 2 2 2 2 2 2 2 2 2 2 2 2 2 2 2 2 2 2 2 2 2 2 2 2 2 2 2 2 2 2 2 2 2 2 2 2 2 2 2 2 2 2 2 2 2 2 2 2 2 2 2 2 2 2 2 2 2 2 2 2 2 2 2 2 2 2 2 2 2 2 2 2 2 2 2 2 2 2 2 2 2 2 2 2 2 2 2 2 2 2 2 2 2 2 2 2 2 2 2 2 2 2 2 2 2 2 2 2 2 2 2 2 2 2 2 2 2 2 2 2 2 2 2 2 2 2 2 2 2 2 2 2 2 2 2 2 2 2 2 2 2 2 2 2 2 2 2 2 2 2 2 2 2 2 2 2 2 2 2 2 2 2 2 2 2 2 2 2 2 2 2 2 2 2 2 2 2 2 2 2 2 2 2 2 2 2 2 2 2 2 2 2 2 2 2 2 2 2 2 2 2 2 2 2 2 2 2 2 2 2 2 2 2 2 2 2 2 2 2 2 2 2 2 2 2 2 2 2 2 2 2 2 2 2 2 2 2 2 2 2 2 2 2 2 2 2 2 2 2 2 2 2 2 2 2 2 2 2 2 2 2 2 2 2 2 2 2 2 2 2 2 2 2 2 2 2 2 2 2 2 2 2 2 2 2 2 2 2 2 2 2 2 2 2 2 2 2 2 2 2 2 2 2 2 2 2 2 2 2 2 2 2 2 2 2 2 2 2 2 2 2 2 2 2 2 2 2 2 2 2 2 2 2 2 2 2 2 2 2 2 2 2 2 2 2 2 2 2 2 2 2 2 2 2 2 2 2 2 2 2 2 2 2 2 2 2 2 2 2 2 2 2 2 2 2 2 2 2 2 2 2 2 2 2 2 2 2 2 2 2 2 2 2 2 2 2 2 2 2 2 2 2 2 2 2 2 2 2 2 2 2 2 2 2 2 2 2 2 2 2 2 2 2 2 2 2 2 2 2 2 2 2 2 2 2 2 2 2 2 2 2 2 2 2 2 2 2 2 2 2 2 2 2 2 2 2 2 2 2 2 2 2 2 2 2 2 2 2 2 2 2 2 2 2 2 2 2 2 2 2 2 2 2 2 2 2 2 2 2 2 2 2 2 2 2 2 2 2 2 2 2 2 2 2 2 2 2 2 2 2 2 2 2 2 2 2 2 2 2 2 2 2 2 2 2 2 2 2 2 2 2 2 2 2 2 2 2 2 2 2 2 2 2 2 2 2 2 2 2 2 2 2 2 2 2 2 2 2 2 2 2 2 2 2 2 2 2 2 2 2 2 2 2 2 2 2 2 2 2 2 2 2 2 2 2 2 2 2 2 2 2 2 2 2 2 2 2 2 2 2 2 2 2 2 2 2 2 2 2 2 2 2 2 2 2 2 2 2 2 2 2 2 2 2 2 2 2 2 2 2 2 2 2 2 2 2 2 2 2 2 2 2 2 2 2 2 2 2 2 2 2 2 2 2 2 2 2 2 2 2 2 2 2 2 2 2 2 2 2 2 2 2 2 2 2 2 2 2 2 2 2 2 2 2 2 2 2 2 2 2 2 2 2 2 2 2 2 2 2 2 2 2 2 2 2 2 2 2 2 2 2 2 2 2 2 2 2 2 2 2 2 2 2 2 2 2 2 2 2 2 2 2 2 2 2 2 2 2 2 2 2 2 2 2 2 2 2 2 2 2 2 2 2 2 2 2 2 2 2 2 2 2 2 2 2 2 2 2 2 2 2 2 2 2 2 2 2 2 2 2 2 2 2 2 2 2 2 2 2 2 2 2 2 2 2 2 2 2 2 2 2 2
1087
3	175 302 1074 
3	368 1073 1074 
3	21 1072 1073 
3	206 1071 1072 
3	273 1070 1071 
3	76 1069 1070 
3	406 1068 1069 
3	403 1067 1068 
3	301 1066 1067 
3	255 1065 1066 
3	124 1064 1065 
3	26 1063 1064 
3	299 1062 1063 
3	364 1061 1062 
3	340 1060 1061 
3	377 1059 1060 
3	128 1058 1059 
3	248 1057 1058 
3	393 1056 1057 
3	188 1055 1056 
3	334 1054 1055 
3	25 1053 1054 
3	232 1052 1053 
3	266 1051 1052 
3	227 1050 1051 
3	358 1049 1050 
3	171 1048 1049 
3	226 1047 1048 
3	308 1046 1047 
3	280 1045 1046 
3	173 1044 1045 
3	298 1043 1044 
3	176 1042 1043 
3	40 1041 1042 
3	46 1040 1041 
3	196 1039 1040 
3	394 1038 1039 
3	17 1037 1038 
3	348 1036 1037 
3	274 1035 1036 
3	228 1034 1035 
3	241 1033 1034 
3	401 1032 1033 
3	160 1031 1032 
3	231 1030 1031 
3	108 1029 1030 
3	19 1028 1029 
3	345 1027 1028 
3	250 1026 1027 
3	98 1025 1026 
3	229 1024 1025 
1	1024 
3	127 306 1023 
3	282 1022 1023 
3	190 1021 1022 
3	309 1020 1021 
3	316 1019 1020 
3	130 1018 1019 
3	338 1017 1018 
3	362 1016 1017 
3	278 1015 1016 
3	294 1014 1015 
3	83 1013 1014 
3	16 1012 1013 
3	135 1011 1012 
3	240 1010 1011 
3	210 1009 1010 
3	254 1008 1009 
3	109 1007 1008 
3	199 1006 1007 
3	112 1005 1006 
3	339 1004 1005 
3	10 1003 1004 
3	383 1002 1003 
3	209 1001 1002 
1	1001 
3	140 302 1000 
3	313 999 1000 
3	329 998 999 
3	373 997 998 
3	45 996 997 
3	182 995 996 
3	277 994 995 
3	76 993 994 
3	133 992 993 
3	283 991 992 
3	403 990 991 
3	235 989 990 
3	352 988 989 
3	386 987 988 
3	8 986 987 
3	134 985 986 
3	344 984 985 
3	174 983 984 
3	42 982 983 
3	183 981 982 
3	107 980 981 
3	197 979 980 
3	123 978 979 
3	384 977 978 
3	371 976 977 
3	18 975 976 
3	398 974 975 
3	65 973 974 
3	203 972 973 
3	303 971 972 
3	256 970 971 
3	360 969 970 
3	9 968 969 
3	215 967 968 
3	336 966 967 
3	188 965 966 
3	39 964 965 
3	49 963 964 
3	195 962 963 
3	137 961 962 
3	29 960 961 
3	349 959 960 
3	38 958 959 
3	119 957 958 
3	319 956 957 
3	111 955 956 
3	27 954 955 
3	351 953 954 
3	193 952 953 
3	67 951 952 
3	104 950 951 
3	171 949 950 
3	226 948 949 
3	404 947 948 
3	269 946 947 
3	173 945 946 
3	342 944 945 
3	355 943 944 
3	402 942 943 
3	118 941 942 
3	396 940 941 
3	176 939 940 
3	298 938 939 
3	287 937 938 
3	333 936 937 
3	361 935 936 
3	356 934 935 
3	132 933 934 
3	135 932 933 
3	30 931 932 
3	169 930 931 
3	86 929 930 
3	327 928 929 
3	23 927 928 
3	324 926 927 
3	348 925 926 
3	257 924 925 
3	347 923 924 
3	274 922 923 
3	300 921 922 
3	120 920 921 
3	286 919 920 
3	177 918 919 
3	222 917 918 
3	407 916 917 
3	282 915 916 
3	36 914 915 
3	261 913 914 
3	91 912 913 
3	60 911 912 
3	51 910 911 
3	106 909 910 
3	73 908 909 
3	146 907 908 
3	70 906 907 
3	7 905 906 
3	212 904 905 
3	392 903 904 
3	249 902 903 
3	41 901 902 
3	369 900 901 
3	156 899 900 
3	408 898 899 
3	251 897 898 
3	271 896 897 
3	281 895 896 
3	175 894 895 
3	359 893 894 
3	368 892 893 
3	304 891 892 
3	55 890 891 
3	11 889 890 
3	200 888 889 
3	56 887 888 
3	309 886 887 
3	71 885 886 
3	94 884 885 
3	97 883 884 
3	273 882 883 
3	136 881 882 
3	259 880 881 
3	3 879 880 
3	380 878 879 
3	321 877 878 
3	37 876 877 
3	147 875 876 
3	31 874 875 
3	83 873 874 
3	144 872 873 
3	6 871 872 
3	187 870 871 
3	155 869 870 
3	301 868 869 
3	77 867 868 
3	48 866 867 
3	367 865 866 
3	337 864 865 
3	332 863 864 
3	207 862 863 
3	204 861 862 
3	354 860 861 
3	311 859 860 
3	4 858 859 
3	246 857 858 
3	54 856 857 
3	292 855 856 
3	218 854 855 
3	113 853 854 
3	390 852 853 
3	236 851 852 
3	393 850 851 
3	114 849 850 
3	47 848 849 
3	312 847 848 
3	217 846 847 
3	290 845 846 
3	334 844 845 
3	202 843 844 
3	189 842 843 
3	232 841 842 
3	154 840 841 
3	267 839 840 
3	252 838 839 
3	44 837 838 
3	266 836 837 
3	307 835 836 
3	388 834 835 
3	62 833 834 
3	100 832 833 
3	227 831 832 
3	289 830 831 
3	165 829 830 
3	63 828 829 
3	92 827 828 
3	149 826 827 
3	201 825 826 
3	225 824 825 
3	399 823 824 
3	308 822 823 
3	214 821 822 
3	184 820 821 
3	245 819 820 
3	346 818 819 
3	322 817 818 
3	405 816 817 
3	264 815 816 
3	14 814 815 
3	5 813 814 
3	350 812 813 
3	40 811 812 
3	230 810 811 
3	90 809 810 
3	186 808 809 
3	46 807 808 
3	142 806 807 
3	116 805 806 
3	317 804 805 
3	22 803 804 
3	69 802 803 
3	153 801 802 
3	272 800 801 
3	162 799 800 
3	12 798 799 
3	28 797 798 
3	297 796 797 
3	394 795 796 
3	141 794 795 
3	325 793 794 
3	192 792 793 
3	381 791 792 
3	382 790 791 
3	228 789 790 
3	101 788 789 
3	366 787 788 
3	237 786 787 
3	150 785 786 
3	2 784 785 
3	66 783 784 
3	126 782 783 
3	372 781 782 
3	306 780 781 
3	35 779 780 
3	401 778 779 
3	50 777 778 
3	95 776 777 
3	139 775 776 
3	108 774 775 
3	88 773 774 
3	395 772 773 
3	205 771 772 
3	316 770 771 
3	341 769 770 
3	331 768 769 
3	82 767 768 
3	81 766 767 
3	260 765 766 
3	239 764 765 
3	1 763 764 
3	198 762 763 
3	58 761 762 
3	247 760 761 
3	75 759 760 
3	284 758 759 
3	105 757 758 
3	275 756 757 
3	375 755 756 
3	387 754 755 
3	138 753 754 
3	87 752 753 
3	179 751 752 
3	363 750 751 
3	43 749 750 
3	98 748 749 
3	376 747 748 
3	223 746 747 
1	746 
3	175 298 745 
3	273 744 745 
3	403 743 744 
3	132 742 743 
3	364 741 742 
3	340 740 741 
3	19 739 740 
3	13 738 739 
3	349 737 738 
3	229 736 737 
1	736 
3	132 349 735 
3	298 734 735 
3	403 733 734 
1	733 
3	33 377 732 
3	129 731 732 
3	282 730 731 
3	180 729 730 
3	285 728 729 
3	103 727 728 
3	353 726 727 
3	24 725 726 
3	71 724 725 
3	128 723 724 
3	148 722 723 
3	314 721 722 
3	216 720 721 
3	395 719 720 
3	365 718 719 
3	270 717 718 
3	323 716 717 
3	328 715 716 
3	335 714 715 
3	276 713 714 
3	25 712 713 
3	330 711 712 
3	166 710 711 
3	181 709 710 
3	224 708 709 
3	96 707 708 
3	279 706 707 
3	102 705 706 
3	61 704 705 
3	379 703 704 
3	348 702 703 
3	242 701 702 
3	26 700 701 
3	244 699 700 
3	253 698 699 
3	234 697 698 
1	697 
3	211 405 696 
3	263 695 696 
3	103 694 695 
3	353 693 694 
3	148 692 693 
3	20 691 692 
3	74 690 691 
3	365 689 690 
3	316 688 689 
3	328 687 688 
3	305 686 687 
3	362 685 686 
3	72 684 685 
3	170 683 684 
3	143 682 683 
3	294 681 682 
3	278 680 681 
3	326 679 680 
3	349 678 679 
3	210 677 678 
3	109 676 677 
3	224 675 676 
3	258 674 675 
3	96 673 674 
3	194 672 673 
3	262 671 672 
3	61 670 671 
3	199 669 670 
3	112 668 669 
3	288 667 668 
3	220 666 667 
3	78 665 666 
3	145 664 665 
3	125 663 664 
3	250 662 663 
3	295 661 662 
3	89 660 661 
1	660 
3	26 265 659 
3	25 658 659 
1	658 
3	151 175 657 
3	405 656 657 
3	173 655 656 
3	103 654 655 
3	121 653 654 
3	148 652 653 
3	5 651 652 
3	176 650 651 
3	365 649 650 
3	333 648 649 
3	79 647 648 
3	330 646 647 
3	135 645 646 
3	187 644 645 
3	238 643 644 
3	174 642 643 
3	185 641 642 
3	394 640 641 
3	102 639 640 
3	301 638 639 
3	61 637 638 
3	192 636 637 
3	324 635 636 
3	348 634 635 
3	2 633 634 
3	246 632 633 
3	222 631 632 
3	282 630 631 
3	248 629 630 
3	191 628 629 
3	213 627 628 
3	233 626 627 
3	328 625 626 
3	47 624 625 
3	25 623 624 
3	146 622 623 
3	267 621 622 
3	326 620 621 
3	96 619 620 
3	224 618 619 
3	219 617 618 
3	389 616 617 
3	0 615 616 
3	171 614 615 
3	234 613 614 
1	613 
3	175 405 612 
3	173 611 612 
3	121 610 611 
3	176 609 610 
3	233 608 609 
3	47 607 608 
3	146 606 607 
3	267 605 606 
3	79 604 605 
3	68 603 604 
3	187 602 603 
3	326 601 602 
3	174 600 601 
3	185 599 600 
3	394 598 599 
3	219 597 598 
3	301 596 597 
3	324 595 596 
3	389 594 595 
3	171 593 594 
3	168 592 593 
3	246 591 592 
3	357 590 591 
1	590 
3	190 302 589 
3	148 588 589 
3	391 587 588 
3	76 586 587 
3	283 585 586 
3	352 584 585 
3	330 583 584 
3	8 582 583 
3	172 581 582 
3	134 580 581 
3	238 579 580 
3	174 578 579 
3	107 577 578 
3	61 576 577 
3	123 575 576 
3	32 574 575 
3	163 573 574 
3	374 572 573 
3	65 571 572 
3	398 570 571 
3	320 569 570 
3	215 568 569 
3	336 567 568 
3	15 566 567 
3	208 565 566 
3	188 564 565 
3	39 563 564 
3	49 562 563 
3	195 561 562 
3	93 560 561 
3	137 559 560 
3	38 558 559 
3	319 557 558 
3	111 556 557 
3	85 555 556 
3	389 554 555 
3	67 553 554 
3	171 552 553 
3	404 551 552 
3	173 550 551 
3	296 549 550 
3	342 548 549 
3	176 547 548 
3	158 546 547 
3	293 545 546 
3	333 544 545 
3	135 543 544 
3	169 542 543 
3	167 541 542 
3	99 540 541 
3	327 539 540 
3	102 538 539 
3	400 537 538 
3	343 536 537 
3	324 535 536 
3	257 534 535 
3	348 533 534 
3	347 532 533 
3	52 531 532 
3	59 530 531 
3	222 529 530 
3	282 528 529 
3	91 527 528 
3	261 526 527 
3	378 525 526 
3	385 524 525 
3	84 523 524 
3	213 522 523 
3	233 521 522 
3	328 520 521 
3	146 519 520 
3	19 518 519 
3	115 517 518 
3	7 516 517 
3	212 515 516 
3	96 514 515 
3	219 513 514 
3	315 512 513 
3	41 511 512 
3	156 510 511 
3	408 509 510 
3	281 508 509 
3	359 507 508 
3	175 506 507 
3	304 505 506 
3	151 504 505 
3	368 503 504 
3	221 502 503 
3	103 501 502 
3	121 500 501 
3	273 499 500 
3	318 498 499 
3	365 497 498 
3	136 496 497 
3	152 495 496 
3	37 494 495 
3	80 493 494 
3	79 492 493 
3	187 491 492 
3	397 490 491 
3	301 489 490 
3	34 488 489 
3	77 487 488 
3	48 486 487 
3	207 485 486 
3	4 484 485 
3	246 483 484 
3	357 482 483 
3	390 481 482 
3	53 480 481 
3	248 479 480 
3	191 478 479 
3	393 477 478 
3	159 476 477 
3	47 475 476 
3	312 474 475 
3	370 473 474 
3	290 472 473 
3	217 471 472 
3	334 470 471 
3	202 469 470 
3	189 468 469 
3	267 467 468 
3	266 466 467 
3	307 465 466 
3	161 464 465 
3	100 463 464 
3	289 462 463 
3	227 461 462 
3	291 460 461 
3	224 459 460 
3	117 458 459 
3	157 457 458 
3	308 456 457 
3	214 455 456 
3	184 454 455 
3	245 453 454 
3	346 452 453 
3	405 451 452 
3	264 450 451 
3	57 449 450 
3	5 448 449 
3	40 447 448 
3	116 446 447 
3	142 445 446 
3	153 444 445 
3	272 443 444 
3	243 442 443 
3	310 441 442 
3	12 440 441 
3	185 439 440 
3	297 438 439 
3	394 437 438 
3	382 436 437 
3	64 435 436 
3	101 434 435 
3	268 433 434 
3	2 432 433 
3	150 431 432 
3	372 430 431 
3	35 429 430 
3	401 428 429 
3	108 427 428 
3	205 426 427 
3	331 425 426 
3	341 424 425 
3	110 423 424 
3	82 422 423 
3	122 421 422 
3	260 420 421 
3	1 419 420 
3	326 418 419 
3	105 417 418 
3	131 416 417 
3	164 415 416 
3	387 414 415 
3	0 413 414 
3	178 412 413 
3	179 411 412 
3	168 410 411 
3	376 409 410 
1	409 
1	190 
1	45 
1	182 
1	391 
1	338 
1	76 
1	283 
1	170 
1	235 
1	330 
1	386 
1	172 
1	134 
1	238 
1	174 
1	107 
1	183 
1	61 
1	197 
1	242 
1	244 
1	299 
1	371 
1	364 
1	24 
1	353 
1	374 
1	65 
1	398 
1	303 
1	256 
1	320 
1	130 
1	215 
1	39 
1	195 
1	137 
1	111 
1	258 
1	27 
1	351 
1	389 
1	104 
1	358 
1	171 
1	226 
1	404 
1	269 
1	173 
1	296 
1	118 
1	402 
1	298 
1	333 
1	278 
1	361 
1	68 
1	169 
1	86 
1	167 
1	254 
1	327 
1	400 
1	257 
1	17 
1	347 
1	120 
1	383 
1	241 
1	89 
1	407 
1	33 
1	160 
1	378 
1	60 
1	385 
1	84 
1	213 
1	328 
1	115 
1	7 
1	212 
1	315 
1	249 
1	156 
1	408 
1	359 
1	368 
1	304 
1	221 
1	180 
1	55 
1	11 
1	103 
1	121 
1	206 
1	56 
1	309 
1	71 
1	97 
1	318 
1	270 
1	406 
1	259 
1	3 
1	321 
1	37 
1	79 
1	144 
1	155 
1	34 
1	112 
1	77 
1	255 
1	48 
1	337 
1	332 
1	26 
1	207 
1	204 
1	354 
1	311 
1	54 
1	218 
1	211 
1	53 
1	248 
1	191 
1	236 
1	393 
1	114 
1	312 
1	290 
1	267 
1	252 
1	266 
1	388 
1	62 
1	161 
1	291 
1	224 
1	262 
1	63 
1	92 
1	117 
1	225 
1	308 
1	214 
1	184 
1	346 
1	129 
1	264 
1	14 
1	57 
1	5 
1	40 
1	350 
1	230 
1	90 
1	186 
1	46 
1	142 
1	317 
1	22 
1	153 
1	272 
1	310 
1	12 
1	28 
1	196 
1	185 
1	297 
1	394 
1	141 
1	199 
1	192 
1	382 
1	366 
1	150 
1	2 
1	66 
1	372 
1	35 
1	50 
1	95 
1	231 
1	139 
1	108 
1	20 
1	88 
1	205 
1	316 
1	82 
1	81 
1	362 
1	260 
1	240 
1	13 
1	198 
1	247 
1	284 
1	105 
1	131 
1	345 
1	10 
1	43 
1	168 
1	98 
1	229 
1	223 
1	302 
1	127 
1	140 
1	329 
1	313 
1	285 
1	21 
1	314 
1	373 
1	148 
1	277 
1	133 
1	403 
1	352 
1	8 
1	344 
1	181 
1	42 
1	379 
1	123 
1	384 
1	32 
1	18 
1	340 
1	163 
1	128 
1	203 
1	360 
1	336 
1	9 
1	15 
1	208 
1	188 
1	25 
1	49 
1	93 
1	29 
1	349 
1	38 
1	319 
1	119 
1	85 
1	67 
1	193 
1	295 
1	280 
1	342 
1	355 
1	216 
1	396 
1	176 
1	74 
1	158 
1	293 
1	335 
1	287 
1	294 
1	356 
1	135 
1	132 
1	30 
1	99 
1	210 
1	102 
1	194 
1	23 
1	339 
1	343 
1	78 
1	324 
1	125 
1	348 
1	300 
1	274 
1	52 
1	286 
1	177 
1	253 
1	59 
1	222 
1	282 
1	36 
1	261 
1	91 
1	51 
1	106 
1	323 
1	233 
1	73 
1	146 
1	16 
1	19 
1	166 
1	70 
1	96 
1	279 
1	219 
1	392 
1	41 
1	369 
1	251 
1	271 
1	281 
1	175 
1	151 
1	200 
1	263 
1	94 
1	273 
1	365 
1	136 
1	305 
1	72 
1	143 
1	380 
1	152 
1	80 
1	147 
1	31 
1	83 
1	6 
1	187 
1	397 
1	109 
1	301 
1	367 
1	124 
1	4 
1	246 
1	292 
1	357 
1	377 
1	113 
1	390 
1	159 
1	47 
1	370 
1	217 
1	334 
1	202 
1	276 
1	232 
1	189 
1	154 
1	44 
1	307 
1	100 
1	227 
1	289 
1	165 
1	288 
1	220 
1	145 
1	157 
1	149 
1	201 
1	399 
1	245 
1	322 
1	405 
1	116 
1	69 
1	243 
1	162 
1	325 
1	381 
1	64 
1	228 
1	101 
1	268 
1	237 
1	209 
1	126 
1	265 
1	306 
1	401 
1	395 
1	341 
1	331 
1	110 
1	122 
1	239 
1	326 
1	1 
1	58 
1	75 
1	275 
1	375 
1	164 
1	387 
1	250 
1	138 
1	0 
1	178 
1	87 
1	179 
1	363 
1	234 
1	376 
0	

8
 1 0 0.9 0.1 0.9 0.1 0.81 0.19
8
 1 0 0 1 0.9 0 0.1 1
8
 1 0 0 1 0.3 0 0.7 1
8
 1 0 0 1 0.3 0 0.7 1
8
 1 0 0 1 0.1 0 0.9 1
8
 1 0 0 1 0.9 0 0.1 1
8
 1 0 0 1 0.3 0 0.7 1
8
 1 0 0 1 0.05 0 0.95 1
8
 1 0 0 1 0.5 0 0.5 1
8
 1 0 0 1 0.3 0 0.7 1
8
 1 0 0 1 0.5 0 0.5 1
8
 1 0 0 1 0.9 0 0.1 1
8
 1 0 0 1 0.3 0 0.7 1
8
 1 0 0 1 0.05 0 0.95 1
8
 1 0 0 1 0.05 0 0.95 1
8
 1 0 0 1 0.5 0 0.5 1
8
 1 0 0 1 0.9 0 0.1 1
8
 1 0 0 1 0.5 0 0.5 1
8
 1 0 0 1 0.7 0 0.3 1
8
 1 0 0 1 0.9 0 0.1 1
8
 1 0 0 1 0.9 0 0.1 1
8
 1 0 0 1 0.4 0 0.6 1
8
 1 0 0 1 0.9 0 0.1 1
8
 1 0 0 1 0.9 0 0.1 1
8
 1 0 0 1 0.75 0 0.25 1
8
 1 0 0 1 0.3 0 0.7 1
8
 1 0 0 1 0.9 0 0.1 1
8
 1 0 0 1 0.5 0 0.5 1
8
 1 0 0 1 0.9 0 0.1 1
8
 1 0 0 1 0.3 0 0.7 1
8
 1 0 0 1 0.9 0 0.1 1
8
 1 0 0 1 0.5 0 0.5 1
8
 1 0 0 1 0.9 0 0.1 1
8
 1 0 0 1 0.9 0 0.1 1
8
 1 0 0 1 0.9 0 0.1 1
8
 1 0 0 1 0.3 0 0.7 1
8
 1 0 0 1 0.9 0 0.1 1
8
 1 0 0 1 0.3 0 0.7 1
8
 1 0 0 1 0.5 0 0.5 1
8
 1 0 0 1 0.1 0 0.9 1
8
 1 0 0 1 0.9 0 0.1 1
8
 1 0 0 1 0.89 0 0.11 1
8
 1 0 0 1 0.9 0 0.1 1
8
 1 0 0 1 0.89 0 0.11 1
8
 1 0 0 1 0.5 0 0.5 1
8
 1 0 0 1 0.09 0 0.91 1
8
 1 0 0 1 0.2 0 0.8 1
8
 1 0 0 1 0.3 0 0.7 1
8
 1 0 0 1 0.4 0 0.6 1
8
 1 0 0 1 0.9 0 0.1 1
8
 1 0 0 1 0.05 0 0.95 1
2
 0.03 1
8
 1 0 0.89 0.11 0.5 0.5 0.445 0.555
8
 1 0 0 1 0.89 0 0.11 1
8
 1 0 0 1 0.5 0 0.5 1
8
 1 0 0 1 0.89 0 0.11 1
8
 1 0 0 1 0.89 0 0.11 1
8
 1 0 0 1 0.89 0 0.11 1
8
 1 0 0 1 0 0 1 1
8
 1 0 0 1 0.01 0 0.99 1
8
 1 0 0 1 0.5 0 0.5 1
8
 1 0 0 1 0.01 0 0.99 1
8
 1 0 0 1 0.5 0 0.5 1
8
 1 0 0 1 0.89 0 0.11 1
8
 1 0 0 1 0.53 0 0.47 1
8
 1 0 0 1 0.5 0 0.5 1
8
 1 0 0 1 0.89 0 0.11 1
8
 1 0 0 1 0.89 0 0.11 1
8
 1 0 0 1 0.89 0 0.11 1
8
 1 0 0 1 0.01 0 0.99 1
8
 1 0 0 1 0.01 0 0.99 1
8
 1 0 0 1 0.9 0 0.1 1
8
 1 0 0 1 0.5 0 0.5 1
8
 1 0 0 1 0.89 0 0.11 1
8
 1 0 0 1 0.89 0 0.11 1
2
 0.03 1
8
 1 0 0.8 0.2 0.2 0.8 0.16 0.84
8
 1 0 0 1 0.89 0 0.11 1
8
 1 0 0 1 0.9 0 0.1 1
8
 1 0 0 1 0 0 1 1
8
 1 0 0 1 0.9 0 0.1 1
8
 1 0 0 1 0.89 0 0.11 1
8
 1 0 0 1 0.9 0 0.1 1
8
 1 0 0 1 0.9 0 0.1 1
8
 1 0 0 1 0.89 0 0.11 1
8
 1 0 0 1 0.9 0 0.1 1
8
 1 0 0 1 0.09 0 0.91 1
8
 1 0 0 1 0.89 0 0.11 1
8
 1 0 0 1 0.45 0 0.55 1
8
 1 0 0 1 0.01 0 0.99 1
8
 1 0 0 1 0.9 0 0.1 1
8
 1 0 0 1 0.67 0 0.33 1
8
 1 0 0 1 0.1 0 0.9 1
8
 1 0 0 1 0.9 0 0.1 1
8
 1 0 0 1 0.5 0 0.5 1
8
 1 0 0 1 0.98 0 0.02 1
8
 1 0 0 1 0.9 0 0.1 1
8
 1 0 0 1 0.5 0 0.5 1
8
 1 0 0 1 0.9 0 0.1 1
8
 1 0 0 1 0.9 0 0.1 1
8
 1 0 0 1 0.9 0 0.1 1
8
 1 0 0 1 0.5 0 0.5 1
8
 1 0 0 1 0.9 0 0.1 1
8
 1 0 0 1 0.9 0 0.1 1
8
 1 0 0 1 0.8 0 0.2 1
8
 1 0 0 1 0.7 0 0.3 1
8
 1 0 0 1 0.89 0 0.11 1
8
 1 0 0 1 0.9 0 0.1 1
8
 1 0 0 1 0.9 0 0.1 1
8
 1 0 0 1 0.9 0 0.1 1
8
 1 0 0 1 0.9 0 0.1 1
8
 1 0 0 1 0.9 0 0.1 1
8
 1 0 0 1 0.9 0 0.1 1
8
 1 0 0 1 0.9 0 0.1 1
8
 1 0 0 1 0.9 0 0.1 1
8
 1 0 0 1 0.5 0 0.5 1
8
 1 0 0 1 0.9 0 0.1 1
8
 1 0 0 1 0.5 0 0.5 1
8
 1 0 0 1 0.5 0 0.5 1
8
 1 0 0 1 0.9 0 0.1 1
8
 1 0 0 1 0.4 0 0.6 1
8
 1 0 0 1 0.9 0 0.1 1
8
 1 0 0 1 0.5 0 0.5 1
8
 1 0 0 1 0.5 0 0.5 1
8
 1 0 0 1 0.9 0 0.1 1
8
 1 0 0 1 0.8 0 0.2 1
8
 1 0 0 1 0.2 0 0.8 1
8
 1 0 0 1 0.9 0 0.1 1
8
 1 0 0 1 0.5 0 0.5 1
8
 1 0 0 1 0.9 0 0.1 1
8
 1 0 0 1 0.59 0 0.41 1
8
 1 0 0 1 0.9 0 0.1 1
8
 1 0 0 1 0.9 0 0.1 1
8
 1 0 0 1 0.69 0 0.31 1
8
 1 0 0 1 0.9 0 0.1 1
8
 1 0 0 1 0.5 0 0.5 1
8
 1 0 0 1 0.69 0 0.31 1
8
 1 0 0 1 0.9 0 0.1 1
8
 1 0 0 1 0.5 0 0.5 1
8
 1 0 0 1 0.9 0 0.1 1
8
 1 0 0 1 0.9 0 0.1 1
8
 1 0 0 1 0.1 0 0.9 1
8
 1 0 0 1 0.5 0 0.5 1
8
 1 0 0 1 0.5 0 0.5 1
8
 1 0 0 1 0.64 0 0.36 1
8
 1 0 0 1 0.9 0 0.1 1
8
 1 0 0 1 0.9 0 0.1 1
8
 1 0 0 1 0.89 0 0.11 1
8
 1 0 0 1 0.9 0 0.1 1
8
 1 0 0 1 0 0 1 1
8
 1 0 0 1 0.5 0 0.5 1
8
 1 0 0 1 0.5 0 0.5 1
8
 1 0 0 1 0.5 0 0.5 1
8
 1 0 0 1 0.9 0 0.1 1
8
 1 0 0 1 0.01 0 0.99 1
8
 1 0 0 1 0.1 0 0.9 1
8
 1 0 0 1 0.9 0 0.1 1
8
 1 0 0 1 0.9 0 0.1 1
8
 1 0 0 1 0.01 0 0.99 1
8
 1 0 0 1 0.9 0 0.1 1
8
 1 0 0 1 0.89 0 0.11 1
8
 1 0 0 1 0.89 0 0.11 1
8
 1 0 0 1 0.5 0 0.5 1
8
 1 0 0 1 0.9 0 0.1 1
8
 1 0 0 1 0.9 0 0.1 1
8
 1 0 0 1 0.9 0 0.1 1
8
 1 0 0 1 0.5 0 0.5 1
8
 1 0 0 1 0.9 0 0.1 1
8
 1 0 0 1 0.9 0 0.1 1
8
 1 0 0 1 0.4 0 0.6 1
8
 1 0 0 1 0.9 0 0.1 1
8
 1 0 0 1 0.9 0 0.1 1
8
 1 0 0 1 0.9 0 0.1 1
8
 1 0 0 1 0.29 0 0.71 1
8
 1 0 0 1 0.5 0 0.5 1
8
 1 0 0 1 0.9 0 0.1 1
8
 1 0 0 1 0.1 0 0.9 1
8
 1 0 0 1 0.7 0 0.3 1
8
 1 0 0 1 0.01 0 0.99 1
8
 1 0 0 1 0.9 0 0.1 1
8
 1 0 0 1 0.6 0 0.4 1
8
 1 0 0 1 0.9 0 0.1 1
8
 1 0 0 1 0.9 0 0.1 1
8
 1 0 0 1 0.9 0 0.1 1
8
 1 0 0 1 0.9 0 0.1 1
8
 1 0 0 1 0.9 0 0.1 1
8
 1 0 0 1 0.89 0 0.11 1
8
 1 0 0 1 0.9 0 0.1 1
8
 1 0 0 1 0.9 0 0.1 1
8
 1 0 0 1 0.9 0 0.1 1
8
 1 0 0 1 0.89 0 0.11 1
8
 1 0 0 1 0.5 0 0.5 1
8
 1 0 0 1 0.9 0 0.1 1
8
 1 0 0 1 0 0 1 1
8
 1 0 0 1 0.5 0 0.5 1
8
 1 0 0 1 0.9 0 0.1 1
8
 1 0 0 1 0.9 0 0.1 1
8
 1 0 0 1 0.5 0 0.5 1
8
 1 0 0 1 0.69 0 0.31 1
8
 1 0 0 1 0.9 0 0.1 1
8
 1 0 0 1 0.9 0 0.1 1
8
 1 0 0 1 0.9 0 0.1 1
8
 1 0 0 1 0 0 1 1
8
 1 0 0 1 0.89 0 0.11 1
8
 1 0 0 1 0.9 0 0.1 1
8
 1 0 0 1 0.9 0 0.1 1
8
 1 0 0 1 0.6 0 0.4 1
8
 1 0 0 1 0.9 0 0.1 1
8
 1 0 0 1 0.5 0 0.5 1
8
 1 0 0 1 0.9 0 0.1 1
8
 1 0 0 1 0.8 0 0.2 1
8
 1 0 0 1 0.9 0 0.1 1
8
 1 0 0 1 0.9 0 0.1 1
8
 1 0 0 1 0.9 0 0.1 1
8
 1 0 0 1 0.9 0 0.1 1
8
 1 0 0 1 0.5 0 0.5 1
8
 1 0 0 1 0.5 0 0.5 1
8
 1 0 0 1 0.9 0 0.1 1
8
 1 0 0 1 0.9 0 0.1 1
8
 1 0 0 1 0.9 0 0.1 1
8
 1 0 0 1 0.9 0 0.1 1
8
 1 0 0 1 0.5 0 0.5 1
8
 1 0 0 1 0.89 0 0.11 1
8
 1 0 0 1 0.5 0 0.5 1
8
 1 0 0 1 0.67 0 0.33 1
8
 1 0 0 1 0.9 0 0.1 1
8
 1 0 0 1 0.8 0 0.2 1
8
 1 0 0 1 0.95 0 0.05 1
8
 1 0 0 1 0.9 0 0.1 1
8
 1 0 0 1 0.8 0 0.2 1
8
 1 0 0 1 0.9 0 0.1 1
8
 1 0 0 1 0.89 0 0.11 1
8
 1 0 0 1 0.9 0 0.1 1
8
 1 0 0 1 0.9 0 0.1 1
8
 1 0 0 1 0.9 0 0.1 1
8
 1 0 0 1 0.9 0 0.1 1
8
 1 0 0 1 0.9 0 0.1 1
8
 1 0 0 1 0.9 0 0.1 1
8
 1 0 0 1 0.9 0 0.1 1
8
 1 0 0 1 0.89 0 0.11 1
8
 1 0 0 1 0.5 0 0.5 1
8
 1 0 0 1 0.7 0 0.3 1
8
 1 0 0 1 0.5 0 0.5 1
8
 1 0 0 1 0.9 0 0.1 1
8
 1 0 0 1 0.9 0 0.1 1
8
 1 0 0 1 0.9 0 0.1 1
8
 1 0 0 1 0.9 0 0.1 1
8
 1 0 0 1 0.9 0 0.1 1
8
 1 0 0 1 0.9 0 0.1 1
8
 1 0 0 1 0.9 0 0.1 1
8
 1 0 0 1 0.9 0 0.1 1
8
 1 0 0 1 0.8 0 0.2 1
8
 1 0 0 1 0.5 0 0.5 1
8
 1 0 0 1 0.9 0 0.1 1
8
 1 0 0 1 0.8 0 0.2 1
8
 1 0 0 1 0.9 0 0.1 1
8
 1 0 0 1 0.3 0 0.7 1
8
 1 0 0 1 0.9 0 0.1 1
8
 1 0 0 1 0.9 0 0.1 1
8
 1 0 0 1 0.9 0 0.1 1
8
 1 0 0 1 0.6 0 0.4 1
8
 1 0 0 1 0.9 0 0.1 1
8
 1 0 0 1 0.9 0 0.1 1
8
 1 0 0 1 0.5 0 0.5 1
8
 1 0 0 1 0 0 1 1
8
 1 0 0 1 0.9 0 0.1 1
8
 1 0 0 1 0.9 0 0.1 1
8
 1 0 0 1 0.7 0 0.3 1
8
 1 0 0 1 0.9 0 0.1 1
8
 1 0 0 1 0.9 0 0.1 1
8
 1 0 0 1 0.9 0 0.1 1
8
 1 0 0 1 0.9 0 0.1 1
8
 1 0 0 1 0.9 0 0.1 1
8
 1 0 0 1 0 0 1 1
8
 1 0 0 1 0.5 0 0.5 1
8
 1 0 0 1 0.67 0 0.33 1
8
 1 0 0 1 0.67 0 0.33 1
8
 1 0 0 1 0.9 0 0.1 1
8
 1 0 0 1 0.9 0 0.1 1
8
 1 0 0 1 0.69 0 0.31 1
8
 1 0 0 1 0.7 0 0.3 1
8
 1 0 0 1 0.9 0 0.1 1
8
 1 0 0 1 0.5 0 0.5 1
8
 1 0 0 1 0.5 0 0.5 1
8
 1 0 0 1 0.7 0 0.3 1
8
 1 0 0 1 0.5 0 0.5 1
8
 1 0 0 1 0.8 0 0.2 1
8
 1 0 0 1 0.9 0 0.1 1
8
 1 0 0 1 0.9 0 0.1 1
8
 1 0 0 1 0.9 0 0.1 1
8
 1 0 0 1 0.5 0 0.5 1
8
 1 0 0 1 0.9 0 0.1 1
8
 1 0 0 1 0.5 0 0.5 1
8
 1 0 0 1 0.05 0 0.95 1
8
 1 0 0 1 0.5 0 0.5 1
8
 1 0 0 1 0.9 0 0.1 1
8
 1 0 0 1 0.89 0 0.11 1
8
 1 0 0 1 0.8 0 0.2 1
8
 1 0 0 1 0.9 0 0.1 1
8
 1 0 0 1 0.9 0 0.1 1
8
 1 0 0 1 0.89 0 0.11 1
8
 1 0 0 1 0.1 0 0.9 1
8
 1 0 0 1 0.9 0 0.1 1
8
 1 0 0 1 0.5 0 0.5 1
8
 1 0 0 1 0.95 0 0.05 1
8
 1 0 0 1 0.9 0 0.1 1
8
 1 0 0 1 0.89 0 0.11 1
8
 1 0 0 1 0.89 0 0.11 1
8
 1 0 0 1 0.9 0 0.1 1
8
 1 0 0 1 0.9 0 0.1 1
8
 1 0 0 1 0.5 0 0.5 1
8
 1 0 0 1 0.85 0 0.15 1
8
 1 0 0 1 0.9 0 0.1 1
8
 1 0 0 1 0.9 0 0.1 1
8
 1 0 0 1 0.5 0 0.5 1
8
 1 0 0 1 0.5 0 0.5 1
8
 1 0 0 1 0.9 0 0.1 1
8
 1 0 0 1 0.9 0 0.1 1
8
 1 0 0 1 0.9 0 0.1 1
8
 1 0 0 1 0.7 0 0.3 1
8
 1 0 0 1 0.9 0 0.1 1
8
 1 0 0 1 0.9 0 0.1 1
8
 1 0 0 1 0.9 0 0.1 1
8
 1 0 0 1 0.2 0 0.8 1
8
 1 0 0 1 0.9 0 0.1 1
8
 1 0 0 1 0.89 0 0.11 1
8
 1 0 0 1 0.5 0 0.5 1
8
 1 0 0 1 0.5 0 0.5 1
8
 1 0 0 1 0.9 0 0.1 1
8
 1 0 0 1 0.67 0 0.33 1
8
 1 0 0 1 0.4 0 0.6 1
2
 0.03 1
8
 1 0 0 1 0 1 0 1
8
 1 0 0 1 0 0 1 1
8
 1 0 0 1 0 0 1 1
8
 1 0 0 1 0 0 1 1
8
 1 0 0 1 0 0 1 1
8
 1 0 0 1 0 0 1 1
8
 1 0 0 1 0 0 1 1
8
 1 0 0 1 0 0 1 1
8
 1 0 0 1 0 0 1 1
8
 1 0 0 1 0 0 1 1
2
 0.03 1
8
 1 0 0 1 0 1 0 1
8
 1 0 0 1 0 0 1 1
8
 1 0 0 1 0 0 1 1
2
 0.03 1
8
 1 0 0.6 0.4 0.5 0.5 0.3 0.7
8
 1 0 0 1 0.6 0 0.4 1
8
 1 0 0 1 0.89 0 0.11 1
8
 1 0 0 1 0.5 0 0.5 1
8
 1 0 0 1 0.5 0 0.5 1
8
 1 0 0 1 0.4 0 0.6 1
8
 1 0 0 1 0.5 0 0.5 1
8
 1 0 0 1 0.2 0 0.8 1
8
 1 0 0 1 0.5 0 0.5 1
8
 1 0 0 1 0.01 0 0.99 1
8
 1 0 0 1 0.4 0 0.6 1
8
 1 0 0 1 0.05 0 0.95 1
8
 1 0 0 1 0.1 0 0.9 1
8
 1 0 0 1 0.2 0 0.8 1
8
 1 0 0 1 0.4 0 0.6 1
8
 1 0 0 1 0.89 0 0.11 1
8
 1 0 0 1 0.8 0 0.2 1
8
 1 0 0 1 0.4 0 0.6 1
8
 1 0 0 1 0.6 0 0.4 1
8
 1 0 0 1 0.5 0 0.5 1
8
 1 0 0 1 0.4 0 0.6 1
8
 1 0 0 1 0.01 0 0.99 1
8
 1 0 0 1 0.5 0 0.5 1
8
 1 0 0 1 0 0 1 1
8
 1 0 0 1 0.5 0 0.5 1
8
 1 0 0 1 0.4 0 0.6 1
8
 1 0 0 1 0.5 0 0.5 1
8
 1 0 0 1 0.4 0 0.6 1
8
 1 0 0 1 0.4 0 0.6 1
8
 1 0 0 1 0.5 0 0.5 1
8
 1 0 0 1 0.5 0 0.5 1
8
 1 0 0 1 0.05 0 0.95 1
8
 1 0 0 1 0.1 0 0.9 1
8
 1 0 0 1 0.1 0 0.9 1
8
 1 0 0 1 0.05 0 0.95 1
8
 1 0 0 1 0.01 0 0.99 1
2
 0.03 1
8
 1 0 0.1 0.9 0.5 0.5 0.05 0.95
8
 1 0 0 1 0.89 0 0.11 1
8
 1 0 0 1 0.05 0 0.95 1
8
 1 0 0 1 0.5 0 0.5 1
8
 1 0 0 1 0.05 0 0.95 1
8
 1 0 0 1 0.89 0 0.11 1
8
 1 0 0 1 0.45 0 0.55 1
8
 1 0 0 1 0.05 0 0.95 1
8
 1 0 0 1 0.05 0 0.95 1
8
 1 0 0 1 0.05 0 0.95 1
8
 1 0 0 1 0.89 0 0.11 1
8
 1 0 0 1 0.05 0 0.95 1
8
 1 0 0 1 0.8 0 0.2 1
8
 1 0 0 1 0.01 0 0.99 1
8
 1 0 0 1 0.05 0 0.95 1
8
 1 0 0 1 0.4 0 0.6 1
8
 1 0 0 1 0.5 0 0.5 1
8
 1 0 0 1 0.5 0 0.5 1
8
 1 0 0 1 0.5 0 0.5 1
8
 1 0 0 1 0.89 0 0.11 1
8
 1 0 0 1 0.89 0 0.11 1
8
 1 0 0 1 0.05 0 0.95 1
8
 1 0 0 1 0.1 0 0.9 1
8
 1 0 0 1 0.5 0 0.5 1
8
 1 0 0 1 0.89 0 0.11 1
8
 1 0 0 1 0.05 0 0.95 1
8
 1 0 0 1 0.05 0 0.95 1
8
 1 0 0 1 0.05 0 0.95 1
8
 1 0 0 1 0.05 0 0.95 1
8
 1 0 0 1 0.01 0 0.99 1
8
 1 0 0 1 0.5 0 0.5 1
8
 1 0 0 1 0.9 0 0.1 1
8
 1 0 0 1 0.89 0 0.11 1
8
 1 0 0 1 0.5 0 0.5 1
8
 1 0 0 1 0.4 0 0.6 1
8
 1 0 0 1 0.05 0 0.95 1
8
 1 0 0 1 0 0 1 1
2
 0.03 1
8
 1 0 0.6 0.4 0.01 0.99 0.006 0.994
8
 1 0 0 1 0.2 0 0.8 1
2
 0.03 1
8
 1 0 0.2 0.8 0.6 0.4 0.12 0.88
8
 1 0 0 1 0.4 0 0.6 1
8
 1 0 0 1 0.5 0 0.5 1
8
 1 0 0 1 0.4 0 0.6 1
8
 1 0 0 1 0.5 0 0.5 1
8
 1 0 0 1 0.4 0 0.6 1
8
 1 0 0 1 0.1 0 0.9 1
8
 1 0 0 1 0.5 0 0.5 1
8
 1 0 0 1 0.4 0 0.6 1
8
 1 0 0 1 0.5 0 0.5 1
8
 1 0 0 1 0.2 0 0.8 1
8
 1 0 0 1 0.5 0 0.5 1
8
 1 0 0 1 0.75 0 0.25 1
8
 1 0 0 1 0.2 0 0.8 1
8
 1 0 0 1 0.1 0 0.9 1
8
 1 0 0 1 0.5 0 0.5 1
8
 1 0 0 1 0.5 0 0.5 1
8
 1 0 0 1 0.2 0 0.8 1
8
 1 0 0 1 0.9 0 0.1 1
8
 1 0 0 1 0.5 0 0.5 1
8
 1 0 0 1 0.4 0 0.6 1
8
 1 0 0 1 0.5 0 0.5 1
8
 1 0 0 1 0.2 0 0.8 1
8
 1 0 0 1 0.5 0 0.5 1
8
 1 0 0 1 0.5 0 0.5 1
8
 1 0 0 1 0.5 0 0.5 1
8
 1 0 0 1 0.4 0 0.6 1
8
 1 0 0 1 0.89 0 0.11 1
8
 1 0 0 1 0.5 0 0.5 1
8
 1 0 0 1 0.9 0 0.1 1
8
 1 0 0 1 0.1 0 0.9 1
8
 1 0 0 1 0.1 0 0.9 1
8
 1 0 0 1 0.4 0 0.6 1
8
 1 0 0 1 0.2 0 0.8 1
8
 1 0 0 1 0.4 0 0.6 1
8
 1 0 0 1 0.5 0 0.5 1
8
 1 0 0 1 0.2 0 0.8 1
8
 1 0 0 1 0.2 0 0.8 1
8
 1 0 0 1 0.4 0 0.6 1
8
 1 0 0 1 0.5 0 0.5 1
8
 1 0 0 1 0.1 0 0.9 1
8
 1 0 0 1 0.05 0 0.95 1
8
 1 0 0 1 0.6 0 0.4 1
8
 1 0 0 1 0.5 0 0.5 1
8
 1 0 0 1 0.5 0 0.5 1
2
 0.03 1
8
 1 0 0.2 0.8 0.5 0.5 0.1 0.9
8
 1 0 0 1 0.5 0 0.5 1
8
 1 0 0 1 0.5 0 0.5 1
8
 1 0 0 1 0.5 0 0.5 1
8
 1 0 0 1 0.05 0 0.95 1
8
 1 0 0 1 0.5 0 0.5 1
8
 1 0 0 1 0.1 0 0.9 1
8
 1 0 0 1 0.5 0 0.5 1
8
 1 0 0 1 0.5 0 0.5 1
8
 1 0 0 1 0.09 0 0.91 1
8
 1 0 0 1 0.5 0 0.5 1
8
 1 0 0 1 0.5 0 0.5 1
8
 1 0 0 1 0.5 0 0.5 1
8
 1 0 0 1 0.5 0 0.5 1
8
 1 0 0 1 0.2 0 0.8 1
8
 1 0 0 1 0.05 0 0.95 1
8
 1 0 0 1 0.5 0 0.5 1
8
 1 0 0 1 0.5 0 0.5 1
8
 1 0 0 1 0.05 0 0.95 1
8
 1 0 0 1 0.5 0 0.5 1
8
 1 0 0 1 0.5 0 0.5 1
8
 1 0 0 1 0.5 0 0.5 1
8
 1 0 0 1 0.1 0 0.9 1
2
 0.03 1
8
 1 0 0.5 0.5 0.5 0.5 0.25 0.75
8
 1 0 0 1 0.4 0 0.6 1
8
 1 0 0 1 0.89 0 0.11 1
8
 1 0 0 1 0.9 0 0.1 1
8
 1 0 0 1 0.9 0 0.1 1
8
 1 0 0 1 0.3 0 0.7 1
8
 1 0 0 1 0.9 0 0.1 1
8
 1 0 0 1 0.3 0 0.7 1
8
 1 0 0 1 0.01 0 0.99 1
8
 1 0 0 1 0.5 0 0.5 1
8
 1 0 0 1 0.1 0 0.9 1
8
 1 0 0 1 0.5 0 0.5 1
8
 1 0 0 1 0.9 0 0.1 1
8
 1 0 0 1 0.4 0 0.6 1
8
 1 0 0 1 0.9 0 0.1 1
8
 1 0 0 1 0.1 0 0.9 1
8
 1 0 0 1 0.89 0 0.11 1
8
 1 0 0 1 0.6 0 0.4 1
8
 1 0 0 1 0.9 0 0.1 1
8
 1 0 0 1 0.6 0 0.4 1
8
 1 0 0 1 0.89 0 0.11 1
8
 1 0 0 1 0.7 0 0.3 1
8
 1 0 0 1 0.6 0 0.4 1
8
 1 0 0 1 0.1 0 0.9 1
8
 1 0 0 1 0.5 0 0.5 1
8
 1 0 0 1 0.9 0 0.1 1
8
 1 0 0 1 0.9 0 0.1 1
8
 1 0 0 1 0.6 0 0.4 1
8
 1 0 0 1 0.8 0 0.2 1
8
 1 0 0 1 0.89 0 0.11 1
8
 1 0 0 1 0.7 0 0.3 1
8
 1 0 0 1 0.5 0 0.5 1
8
 1 0 0 1 0.8 0 0.2 1
8
 1 0 0 1 0.9 0 0.1 1
8
 1 0 0 1 0.2 0 0.8 1
8
 1 0 0 1 0.05 0 0.95 1
8
 1 0 0 1 0.9 0 0.1 1
8
 1 0 0 1 0.5 0 0.5 1
8
 1 0 0 1 0.9 0 0.1 1
8
 1 0 0 1 0.5 0 0.5 1
8
 1 0 0 1 0.89 0 0.11 1
8
 1 0 0 1 0.5 0 0.5 1
8
 1 0 0 1 0.5 0 0.5 1
8
 1 0 0 1 0.89 0 0.11 1
8
 1 0 0 1 0.89 0 0.11 1
8
 1 0 0 1 0.8 0 0.2 1
8
 1 0 0 1 0.75 0 0.25 1
8
 1 0 0 1 0.9 0 0.1 1
8
 1 0 0 1 0.5 0 0.5 1
8
 1 0 0 1 0.89 0 0.11 1
8
 1 0 0 1 0.9 0 0.1 1
8
 1 0 0 1 0.9 0 0.1 1
8
 1 0 0 1 0.9 0 0.1 1
8
 1 0 0 1 0.8 0 0.2 1
8
 1 0 0 1 0.5 0 0.5 1
8
 1 0 0 1 0.9 0 0.1 1
8
 1 0 0 1 0.5 0 0.5 1
8
 1 0 0 1 0.8 0 0.2 1
8
 1 0 0 1 0.9 0 0.1 1
8
 1 0 0 1 0.01 0 0.99 1
8
 1 0 0 1 0.2 0 0.8 1
8
 1 0 0 1 0.89 0 0.11 1
8
 1 0 0 1 0.9 0 0.1 1
8
 1 0 0 1 0.9 0 0.1 1
8
 1 0 0 1 0.9 0 0.1 1
8
 1 0 0 1 0.01 0 0.99 1
8
 1 0 0 1 0.1 0 0.9 1
8
 1 0 0 1 0.1 0 0.9 1
8
 1 0 0 1 0.1 0 0.9 1
8
 1 0 0 1 0.4 0 0.6 1
8
 1 0 0 1 0.2 0 0.8 1
8
 1 0 0 1 0.09 0 0.91 1
8
 1 0 0 1 0.5 0 0.5 1
8
 1 0 0 1 0.4 0 0.6 1
8
 1 0 0 1 0.9 0 0.1 1
8
 1 0 0 1 0.4 0 0.6 1
8
 1 0 0 1 0.1 0 0.9 1
8
 1 0 0 1 0.89 0 0.11 1
8
 1 0 0 1 0.8 0 0.2 1
8
 1 0 0 1 0.8 0 0.2 1
8
 1 0 0 1 0.05 0 0.95 1
8
 1 0 0 1 0.9 0 0.1 1
8
 1 0 0 1 0.6 0 0.4 1
8
 1 0 0 1 0.5 0 0.5 1
8
 1 0 0 1 0.8 0 0.2 1
8
 1 0 0 1 0.6 0 0.4 1
8
 1 0 0 1 0.9 0 0.1 1
8
 1 0 0 1 0.9 0 0.1 1
8
 1 0 0 1 0.4 0 0.6 1
8
 1 0 0 1 0.5 0 0.5 1
8
 1 0 0 1 0.9 0 0.1 1
8
 1 0 0 1 0.89 0 0.11 1
8
 1 0 0 1 0.4 0 0.6 1
8
 1 0 0 1 0.4 0 0.6 1
8
 1 0 0 1 0.89 0 0.11 1
8
 1 0 0 1 0.3 0 0.7 1
8
 1 0 0 1 0.89 0 0.11 1
8
 1 0 0 1 0.5 0 0.5 1
8
 1 0 0 1 0.2 0 0.8 1
8
 1 0 0 1 0.89 0 0.11 1
8
 1 0 0 1 0.5 0 0.5 1
8
 1 0 0 1 0.7 0 0.3 1
8
 1 0 0 1 0.9 0 0.1 1
8
 1 0 0 1 0.9 0 0.1 1
8
 1 0 0 1 0.8 0 0.2 1
8
 1 0 0 1 0.7 0 0.3 1
8
 1 0 0 1 0.5 0 0.5 1
8
 1 0 0 1 0.5 0 0.5 1
8
 1 0 0 1 0.5 0 0.5 1
8
 1 0 0 1 0.89 0 0.11 1
8
 1 0 0 1 0.89 0 0.11 1
8
 1 0 0 1 0.9 0 0.1 1
8
 1 0 0 1 0.8 0 0.2 1
8
 1 0 0 1 0.1 0 0.9 1
8
 1 0 0 1 0.9 0 0.1 1
8
 1 0 0 1 0.9 0 0.1 1
8
 1 0 0 1 0.89 0 0.11 1
8
 1 0 0 1 0.89 0 0.11 1
8
 1 0 0 1 0.5 0 0.5 1
8
 1 0 0 1 0.5 0 0.5 1
8
 1 0 0 1 0.8 0 0.2 1
8
 1 0 0 1 0.6 0 0.4 1
8
 1 0 0 1 0.9 0 0.1 1
8
 1 0 0 1 0.9 0 0.1 1
8
 1 0 0 1 0.4 0 0.6 1
8
 1 0 0 1 0.9 0 0.1 1
8
 1 0 0 1 0.9 0 0.1 1
8
 1 0 0 1 0.9 0 0.1 1
8
 1 0 0 1 0.3 0 0.7 1
8
 1 0 0 1 0.2 0 0.8 1
8
 1 0 0 1 0.5 0 0.5 1
8
 1 0 0 1 0.5 0 0.5 1
8
 1 0 0 1 0.1 0 0.9 1
8
 1 0 0 1 0.7 0 0.3 1
8
 1 0 0 1 0.9 0 0.1 1
8
 1 0 0 1 0.7 0 0.3 1
8
 1 0 0 1 0.9 0 0.1 1
8
 1 0 0 1 0.9 0 0.1 1
8
 1 0 0 1 0.4 0 0.6 1
8
 1 0 0 1 0.7 0 0.3 1
8
 1 0 0 1 0.9 0 0.1 1
8
 1 0 0 1 0.01 0 0.99 1
8
 1 0 0 1 0.8 0 0.2 1
8
 1 0 0 1 0.9 0 0.1 1
8
 1 0 0 1 0.6 0 0.4 1
8
 1 0 0 1 0.5 0 0.5 1
8
 1 0 0 1 0.5 0 0.5 1
8
 1 0 0 1 0.89 0 0.11 1
8
 1 0 0 1 0.1 0 0.9 1
8
 1 0 0 1 0.9 0 0.1 1
8
 1 0 0 1 0.5 0 0.5 1
8
 1 0 0 1 0.8 0 0.2 1
8
 1 0 0 1 0.5 0 0.5 1
8
 1 0 0 1 0.9 0 0.1 1
8
 1 0 0 1 0.89 0 0.11 1
8
 1 0 0 1 0.8 0 0.2 1
8
 1 0 0 1 0.4 0 0.6 1
8
 1 0 0 1 0.5 0 0.5 1
8
 1 0 0 1 0.6 0 0.4 1
8
 1 0 0 1 0.8 0 0.2 1
8
 1 0 0 1 0.8 0 0.2 1
8
 1 0 0 1 0.3 0 0.7 1
8
 1 0 0 1 0.9 0 0.1 1
8
 1 0 0 1 0.5 0 0.5 1
8
 1 0 0 1 0.9 0 0.1 1
8
 1 0 0 1 0.2 0 0.8 1
8
 1 0 0 1 0.89 0 0.11 1
8
 1 0 0 1 0.8 0 0.2 1
8
 1 0 0 1 0.9 0 0.1 1
8
 1 0 0 1 0.6 0 0.4 1
8
 1 0 0 1 0.3 0 0.7 1
8
 1 0 0 1 0.6 0 0.4 1
8
 1 0 0 1 0.58 0 0.42 1
8
 1 0 0 1 0.89 0 0.11 1
8
 1 0 0 1 0.89 0 0.11 1
8
 1 0 0 1 0.9 0 0.1 1
8
 1 0 0 1 0.1 0 0.9 1
8
 1 0 0 1 0.3 0 0.7 1
8
 1 0 0 1 0.89 0 0.11 1
8
 1 0 0 1 0.1 0 0.9 1
8
 1 0 0 1 0.5 0 0.5 1
2
 0.03 1
2
 0.9999 0.0001
2
 1 8e-08
2
 0.9999 0.0001
2
 0.9999 0.0001
2
 0.9999 0.0001
2
 0.99975 0.00025
2
 0.999993 7e-06
2
 0.999999 1e-06
2
 0.9999 0.0001
2
 0.9998 0.0002
2
 1 4e-08
2
 0.99995 5e-05
2
 0.999999 1.4e-06
2
 0.999999 1e-06
2
 0.9999 0.0001
2
 0.999977 2.342e-05
2
 0.9995 0.0005
2
 0.9999 0.0001
2
 0.99989 0.00011
2
 0.99995 5e-05
2
 0.99996 4e-05
2
 0.9999 0.0001
2
 1 1e-08
2
 0.99998 2e-05
2
 0.9999 0.0001
2
 0.99974 0.00026
2
 1 1e-08
2
 0.9993 0.0007
2
 0.99988 0.00012
2
 1 1.1e-07
2
 0.9999 0.0001
2
 0.9999 0.0001
2
 0.9999 0.0001
2
 0.999996 3.64e-06
2
 0.999999 1.448e-06
2
 0.999999 1.26e-06
2
 0.99998 2e-05
2
 1 1e-08
2
 0.99875 0.00125
2
 0.9999 0.0001
2
 0.9999 0.0001
2
 0.9999 0.0001
2
 1 1e-08
2
 0.9991 0.0009
2
 0.99992 8e-05
2
 0.9999 0.0001
2
 0.99989 0.00011
2
 0.99989 0.00011
2
 0.9996 0.0004
2
 0.9999 0.0001
2
 0.9995 0.0005
2
 1 6e-08
2
 0.99999 1e-05
2
 0.999999 1e-06
2
 0.9999 0.0001
2
 0.9999 0.0001
2
 0.999 0.001
2
 0.99991 9e-05
2
 0.9999 0.0001
2
 1 8e-08
2
 0.9999 0.0001
2
 0.99986 0.00014
2
 0.99999 1e-05
2
 0.99995 5e-05
2
 0.9997 0.0003
2
 0.99995 5e-05
2
 0.999999 6.9e-07
2
 0.9999 0.0001
2
 0.99993 7e-05
2
 1 1e-08
2
 0.9999 0.0001
2
 0.99998 2e-05
2
 0.9999 0.0001
2
 0.99999 1e-05
2
 0.999989 1.08e-05
2
 0.99994 6e-05
2
 0.99994 6e-05
2
 0.99998 2e-05
2
 0.9999 0.0001
2
 0.99998 2e-05
2
 0.99991 9e-05
2
 1 3.6e-07
2
 0.9999 0.0001
2
 0.9999 0.0001
2
 1 1e-08
2
 1 4e-08
2
 0.999999 6.6e-07
2
 0.999977 2.291e-05
2
 1 1.7e-07
2
 0.999995 5e-06
2
 0.99994 6e-05
2
 0.9999 0.0001
2
 0.999999 1.2e-06
2
 0.998 0.002
2
 0.999999 1e-06
2
 0.9991 0.0009
2
 0.999981 1.92e-05
2
 0.9999 0.0001
2
 0.99989 0.00011
2
 0.99998 2e-05
2
 0.9999 0.0001
2
 0.9999 0.0001
2
 1 2e-07
2
 0.9995 0.0005
2
 0.9998 0.0002
2
 0.999999 1e-06
2
 0.99998 2.003e-05
2
 0.9999 0.0001
2
 0.9997 0.0003
2
 1 1e-08
2
 0.9998 0.0002
2
 0.997 0.003
2
 1 2.8e-07
2
 0.999 0.001
2
 0.999991 8.59e-06
2
 0.99995 5e-05
2
 1 1e-08
2
 0.997 0.003
2
 0.999999 1e-06
2
 0.99995 5e-05
2
 0.9999 0.0001
2
 0.9991 0.0009
2
 1 1e-08
2
 0.9999 0.0001
2
 0.9999 0.0001
2
 0.9999 0.0001
2
 0.9999 0.0001
2
 0.999996 4e-06
2
 0.999958 4.19e-05
2
 1 1.6e-07
2
 0.9999 0.0001
2
 0.99962 0.00038
2
 0.9999 0.0001
2
 0.99989 0.00011
2
 0.9999 0.0001
2
 0.999969 3.12e-05
2
 0.99989 0.00011
2
 0.999999 5.9e-07
2
 0.999999 1e-06
2
 0.999993 6.77e-06
2
 0.99975 0.00025
2
 0.9999 0.0001
2
 1 5e-08
2
 0.999982 1.82e-05
2
 1 1e-08
2
 0.9999 0.0001
2
 0.99999 1e-05
2
 1 1.4e-07
2
 0.999953 4.733e-05
2
 1 1e-08
2
 0.99999 1e-05
2
 0.99994 6e-05
2
 1 1e-08
2
 0.99989 0.00011
2
 0.99991 9e-05
2
 0.99991 9e-05
2
 0.9999 0.0001
2
 0.99987 0.00013
2
 0.99999 1e-05
2
 1 1e-08
2
 0.9999 0.0001
2
 1 9e-08
2
 1 1.1e-07
2
 0.9995 0.0005
2
 1 2.9e-07
2
 1 6e-08
2
 1 2e-08
2
 0.999992 7.67e-06
2
 0.99994 6e-05
2
 0.998 0.002
2
 0.9979 0.0021
2
 0.999994 6e-06
2
 0.9998 0.0002
2
 0.99989 0.00011
2
 0.9994 0.0006
2
 0.999999 1e-06
2
 0.999555 0.00044466
2
 0.999999 1e-06
2
 0.999998 2.143e-06
2
 0.999999 1e-06
2
 0.99991 9e-05
2
 1 5e-07
2
 1 1e-08
2
 1 1e-08
2
 0.9999 0.0001
2
 0.9999 0.0001
2
 0.9999 0.0001
2
 0.99995 5e-05
2
 0.9999 0.0001
2
 0.9999 0.0001
2
 1 1e-08
2
 0.9999 0.0001
2
 1 1.1e-07
2
 0.99997 3e-05
2
 0.9999 0.0001
2
 0.99997 3e-05
2
 0.9999 0.0001
2
 0.99996 4e-05
2
 0.9999 0.0001
2
 0.999585 0.000415
2
 0.999991 9.42e-06
2
 0.999999 1e-06
2
 0.9999 0.0001
2
 0.9995 0.0005
2
 0.9999 0.0001
2
 0.9999 0.0001
2
 0.999 0.001
2
 0.9999 0.0001
2
 0.99993 7e-05
2
 0.9996 0.0004
2
 0.9995 0.0005
2
 0.9999 0.0001
2
 0.99991 9e-05
2
 1 3.3e-07
2
 0.9999 0.0001
2
 0.9999 0.0001
2
 0.9992 0.0008
2
 0.9999 0.0001
2
 0.9999 0.0001
2
 0.9999 0.0001
2
 0.999999 8.1e-07
2
 0.9999 0.0001
2
 0.99995 5e-05
2
 0.99999 1e-05
2
 0.99989 0.00011
2
 0.9995 0.0005
2
 0.99995 5e-05
2
 0.9998 0.0002
2
 0.9995 0.0005
2
 0.9997 0.0003
2
 0.99999 9.61e-06
2
 0.9998 0.0002
2
 0.9999 0.0001
2
 0.99999 1e-05
2
 0.9999 0.0001
2
 0.999998 2e-06
2
 0.999999 1e-06
2
 0.99989 0.00011
2
 0.99974 0.00026
2
 0.999964 3.587e-05
2
 0.99998 2e-05
2
 0.9994 0.0006
2
 0.99996 4e-05
2
 0.99946 0.00054
2
 0.999995 5.24e-06
2
 0.9999 0.0001
2
 0.9999 0.0001
2
 0.9999 0.0001
2
 1 1e-08
2
 1 1.7e-07
2
 1 1.2e-07
2
 0.999991 8.64e-06
2
 1 1.1e-07
2
 0.999996 3.57e-06
2
 0.9999 0.0001
2
 0.9999 0.0001
2
 1 6e-08
2
 0.99996 4e-05
2
 0.99988 0.00012
2
 0.99995 5e-05
2
 0.999973 2.7e-05
2
 0.995 0.005
2
 0.9999 0.0001
2
 0.9999 0.0001
2
 0.9999 0.0001
2
 0.999999 6e-07
2
 0.9999 0.0001
2
 1 1e-08
2
 0.9999 0.0001
2
 0.99985 0.00015
2
 1 2e-08
2
 0.9999 0.0001
2
 0.9999 0.0001
2
 0.9998 0.0002
2
 0.9999 0.0001
2
 0.9999 0.0001
2
 0.99999 1e-05
2
 0.999997 2.88e-06
2
 0.99999 1e-05
2
 0.9995 0.0005
2
 0.9994 0.0006
2
 0.99922 0.00078
2
 0.99925 0.00075
2
 0.9998 0.0002
2
 1 1e-08
2
 0.9999 0.0001
2
 0.99998 2e-05
2
 0.99996 4e-05
2
 1 5e-07
2
 0.9994 0.0006
2
 0.9999 0.0001
2
 0.9995 0.0005
2
 0.999999 1e-06
2
 0.99999 1e-05
2
 0.99995 5e-05
2
 1 7e-08
2
 0.9999 0.0001
2
 0.9998 0.0002
2
 0.9995 0.0005
2
 0.9996 0.0004
2
 0.9999 0.0001
2
 0.99997 3e-05
2
 0.9999 0.0001
2
 0.9994 0.0006
2
 0.998 0.002
2
 0.9999 0.0001
2
 0.9996 0.0004
2
 1 4e-08
2
 0.999998 2e-06
2
 0.99995 5e-05
2
 0.99984 0.00016
2
 0.9982 0.0018
2
 0.999998 2.24e-06
2
 0.99985 0.00015
2
 0.9995 0.0005
2
 0.999999 1e-06
2
 0.9999 0.0001
2
 0.999838 0.0001616
2
 0.99995 5e-05
2
 0.9999 0.0001
2
 1 1e-08
2
 0.9999 0.0001
2
 0.995 0.005
2
 0.99997 3e-05
2
 0.99995 5e-05
2
 0.9999 0.0001
2
 0.9999 0.0001
2
 1 2.3e-07
2
 0.99994 6e-05
2
 0.9999 0.0001
2
 0.999979 2.06e-05
2
 0.999999 6.2e-07
2
 0.9999 0.0001
2
 0.9999 0.0001
2
 1 1.2e-07
2
 0.99985 0.00015
2
 0.9996 0.0004
2
 0.9997 0.0003
2
 0.999997 2.82e-06
2
 0.99998 2e-05
2
 0.99999 1e-05
2
 0.9995 0.0005
2
 0.9999 0.0001
2
 1 2e-08
2
 1 2e-08
2
 0.9994 0.0006
2
 0.9999 0.0001
2
 0.9995 0.0005
2
 0.999907 9.332e-05
2
 0.999998 2e-06
2
 0.9999 0.0001
2
 0.9994 0.0006
2
 1 1e-08
2
 0.999993 6.69e-06
2
 0.9999 0.0001
2
 0.999999 5.4e-07
2
 0.999999 1e-06
2
 0.999992 8e-06
2
 1 4e-08
2
 0.999915 8.54e-05
2
 0.996 0.004
2
 0.9999 0.0001
2
 0.9999 0.0001
2
 1 2.9e-07
2
 1 1.1e-07
2
 0.99985 0.00015
2
 0.999994 6.39e-06
2
 0.99999 1e-05
2
 0.99999 1e-05
2
 0.999 0.001
2
 0.999722 0.0002777
2
 0.9998 0.0002
2
 0.9999 0.0001
2
 0.9997 0.0003
2
 0.9999 0.0001
2
 0.9999 0.0001
2
 0.9999 0.0001
2
 0.9999 0.0001
2
 1 1e-08
2
 1 5e-08
2
 0.9999 0.0001
2
 0.9999 0.0001
2
 0.99992 8e-05
2
 0.9999 0.0001
2
 0.9999 0.0001
2
 0.9995 0.0005
2
 0.9999 0.0001
2
 0.9999 0.0001
2
 0.99875 0.00125
2
 0.9999 0.0001
2
 0.99989 0.00011
2
 0.999999 1e-06
2
 0.9995 0.0005
2
 0.99997 3e-05
2
 0.9999 0.0001
2
 1 1.1e-07
2
 1 4e-08
2
 0.99997 3e-05
2
 0.9999 0.0001
2
 1 5e-08
2
 0.9994 0.0006
2
 0.99999 1e-05
2
 0.99996 4e-05
2
 0.999982 1.776e-05
2
 1 2.3e-07
2
 0.9999 0.0001
2
 0.99998 2e-05
2
 0.99988 0.00012
2
 1 5e-07
1
 1

